num_offers = 20;
num_halls = 10;
start=[58,81,33,87,54,46,5,43,20,24,2,61,60,19,9,42,26,72,75,55];
end=[72,83,73,91,75,76,97,84,56,29,39,92,97,53,100,85,47,87,90,72];
price=[1409,283,2855,51,843,2573,3564,3031,2632,124,627,1327,2305,2672,6080,2109,1425,588,1182,1621];
requirement=[753,632,230,923,225,713,245,700,701,891,358,508,824,939,392,217,523,775,581,394];
capacity=[881,988,308,784,739,401,213,956,950,933];
